NAME : u1817Preorder.2873.tour
COMMENT : Length = 2873
COMMENT : Found by LKH [Keld Helsgaun] Mon May  4 10:06:53 2020
TYPE : TOUR
DIMENSION : 1817
TOUR_SECTION
1
2
3
4
5
1808
1809
6
7
8
9
10
11
12
13
14
15
16
17
18
19
20
21
22
23
24
25
26
27
28
29
30
31
32
33
34
35
36
37
38
41
40
39
47
48
49
50
51
46
45
44
42
43
54
53
52
61
62
63
64
60
59
58
57
56
55
69
70
68
67
66
65
71
72
73
74
75
76
77
78
79
80
86
87
88
89
90
85
84
83
81
82
91
94
95
96
97
98
99
100
101
102
103
104
92
93
105
106
107
108
109
110
111
112
113
133
134
229
230
231
232
233
241
234
235
236
237
238
239
240
257
264
256
255
254
253
252
251
250
243
244
242
132
131
130
129
128
115
114
118
119
117
116
120
121
123
122
124
126
125
127
245
246
247
248
249
258
259
260
261
262
263
269
270
271
272
273
282
283
284
285
286
287
288
280
281
279
278
277
276
275
274
268
267
266
265
1672
1673
1671
1663
1664
1669
1670
1668
1665
1667
1666
1151
1150
1149
1152
1148
1147
1146
1145
1153
1155
1154
1156
1157
1158
1159
1161
1163
1168
1166
1651
1643
1644
1640
1639
1636
1635
1632
1634
1637
1638
1641
1642
1172
1171
1173
1170
1169
1174
1175
1178
1179
1176
1177
1180
1181
1182
1183
1191
1190
1184
1189
1188
1185
1620
1187
1186
1621
1622
1629
1628
1630
1633
1631
1627
1626
1625
1624
1623
1619
1618
1617
1614
1616
1615
1613
1610
1611
1612
1602
1601
1600
1603
1604
1605
1606
1607
1608
1609
1744
1745
1746
1747
1748
1749
1750
1751
1752
1753
1741
1742
1743
1759
1760
1758
1757
1756
1755
1754
1763
1762
1761
1559
1560
1561
1558
1551
1550
1549
1552
1553
1557
1556
1770
1769
1555
1554
1774
1773
1772
1765
1771
1768
1767
1764
1766
1789
1790
1791
1792
1802
1801
1800
1799
1798
1797
1796
1795
1794
1793
178
177
176
175
174
173
170
171
172
182
181
180
179
183
184
185
186
168
169
167
166
165
190
189
188
187
193
192
191
162
163
164
158
159
160
161
194
195
196
1728
1740
1739
1738
1737
1736
1735
1734
1733
1732
1731
1730
1729
1727
1726
1725
1720
1721
1722
1723
1724
1719
1718
1717
1716
1715
200
201
197
198
199
157
156
155
152
153
154
204
203
202
207
206
205
151
150
149
148
147
213
212
211
210
208
209
1712
1713
1714
1702
1703
1704
1705
1706
1707
1708
1709
1710
1711
1701
1700
1699
1698
1697
1696
1695
1694
1693
1692
1691
1690
1689
220
217
216
215
214
146
145
144
143
142
141
218
219
221
222
223
224
140
139
138
137
136
135
225
226
228
227
1685
1684
1683
1686
1687
1688
1677
1682
1681
1680
1676
1678
1679
1645
1646
1647
1675
1674
1661
1662
1659
1660
1656
1658
1657
1655
1654
1653
1648
1649
1652
1650
1167
1165
1164
1162
1160
1144
1143
1138
1139
1140
1141
1299
1300
1301
1302
1303
1305
1304
1128
1129
1135
1136
1137
1142
1133
1134
1132
1131
1130
1124
1125
1126
1127
1123
1122
1121
1120
1119
1093
1094
1095
1091
1092
1099
1098
1097
1096
1089
1090
1322
1323
1324
1325
1326
1327
1328
1321
1320
1319
1318
1311
1310
1309
1308
1307
1306
1312
1313
1314
1315
1316
1317
1334
1335
1336
1329
1330
1331
1332
1333
1371
1372
1373
1374
1375
1376
1377
1378
1379
1380
1298
1297
1296
1295
1294
1293
1292
1291
1290
1289
1288
1279
1280
1281
1282
1381
1382
1383
1362
1363
1364
1365
1366
1367
1368
1369
1370
1344
1345
1346
1347
1348
1358
1357
1356
1402
1401
1400
1399
1398
1261
1262
1260
1388
1387
1397
1396
1395
1394
1393
1360
1359
1361
1392
1391
1390
1389
1386
1385
1384
1283
1284
1285
1286
1287
1278
1277
1276
1275
1274
1273
1272
1271
1270
1264
1263
1265
1266
1267
1268
1269
1193
1192
1194
1195
1196
1197
1255
1256
1257
1258
1259
1254
1253
1252
1204
1203
1202
1201
1200
1199
1198
1209
1208
1207
1206
1205
1251
1250
1219
1218
1217
1210
1211
1212
1213
1214
1599
1598
1597
1596
1215
1216
1591
1592
1594
1593
1584
1583
1585
1586
1590
1589
1595
1587
1588
1575
1574
1573
1572
1571
1570
1562
1569
1568
1567
1566
1494
1493
1497
1496
1495
1565
1564
1563
1512
1511
1510
1509
1508
1498
1499
1500
1492
1576
1577
1578
1579
1580
1581
1582
1461
1462
1460
1459
1458
1447
1446
1445
1444
1443
1442
1441
1440
1439
1438
1437
1436
470
1426
469
1422
1423
1427
1428
1425
1424
1435
1429
1430
1431
1434
1433
1432
1227
1228
1226
1225
1224
1223
1222
1221
1220
1246
1245
1232
1231
1230
1229
1241
1242
1243
1244
1233
1247
1248
1249
1234
1235
1236
1237
1238
1239
1240
1403
1404
1405
1406
1407
1408
1410
1411
1412
1413
1414
1415
1416
1417
1418
1419
1420
1421
1409
448
449
450
451
452
456
457
455
454
453
445
446
447
444
443
442
441
440
439
438
432
433
434
435
436
437
408
407
406
409
405
404
402
403
401
399
398
397
396
395
400
390
391
394
393
392
1355
1354
1353
1352
1351
1350
1349
389
388
387
361
362
1343
1342
1341
1340
1339
1338
1337
357
358
359
360
364
363
382
381
371
370
365
366
367
368
369
372
380
383
385
386
384
379
378
377
376
375
374
373
1036
1035
1034
1033
1032
1031
1030
1029
413
414
415
412
411
410
420
416
417
418
419
421
422
423
424
431
430
429
428
427
426
425
649
650
647
648
646
651
652
653
1001
1002
1003
1004
1005
1006
658
657
656
655
654
674
675
673
672
671
663
662
661
660
659
664
665
666
667
668
669
670
800
801
802
803
804
805
919
920
921
922
927
928
929
930
931
932
909
908
933
934
935
926
925
924
923
944
936
945
946
947
948
949
950
937
938
939
940
941
942
943
980
981
982
979
978
977
976
975
973
974
983
984
985
986
989
990
991
992
997
1007
998
996
993
995
1021
1020
1009
1019
1008
999
1000
1018
1017
1012
1013
1011
1016
1010
1015
1014
1028
1027
1026
1025
1024
1023
1022
994
988
987
1040
1041
1042
1043
1044
1045
972
971
1046
1047
1048
1049
1039
1038
1037
1050
1051
1052
1053
1054
1055
1056
1057
344
345
346
347
348
349
350
355
356
353
354
351
352
342
343
341
340
336
339
338
1070
337
1073
329
330
331
332
335
334
333
1085
1084
1083
1082
1076
1075
1074
320
1077
1078
1079
1080
1081
1087
1086
1088
1105
1104
1103
1102
1101
1100
1118
1117
1116
1115
1114
1113
1112
1111
1110
1109
1108
1107
1106
313
312
311
310
309
308
307
306
305
296
294
292
291
289
290
293
295
298
297
300
299
301
302
304
303
315
314
317
316
318
319
322
321
323
324
326
325
327
328
1072
1071
1068
1069
1067
1066
1064
1065
1063
1062
1061
1060
1058
1059
969
970
968
967
965
966
964
963
961
962
960
959
957
958
955
956
953
954
951
952
906
907
905
904
902
903
901
900
899
898
897
896
895
894
893
892
877
878
879
880
881
882
883
884
885
850
851
886
887
888
889
890
891
861
862
863
864
865
870
871
872
860
876
875
873
853
874
852
845
856
857
858
859
866
867
868
869
910
911
912
913
914
915
916
917
918
854
855
846
844
843
847
842
849
848
841
840
839
838
826
827
828
829
830
831
832
824
822
823
821
820
819
825
833
834
835
836
837
815
816
817
818
813
812
811
810
809
806
807
808
799
798
797
796
814
795
794
793
792
773
772
776
791
775
774
771
770
769
763
764
765
766
767
760
761
762
768
752
753
754
751
755
756
757
758
759
744
745
743
746
747
748
749
750
740
741
742
739
738
737
735
736
734
724
725
726
727
723
720
719
721
722
718
717
716
715
714
731
732
728
733
729
730
713
712
602
601
600
599
598
597
596
606
605
604
603
711
710
709
708
607
608
609
610
611
702
703
704
705
706
707
699
700
701
693
692
691
690
689
686
685
694
695
696
698
697
784
785
786
787
788
789
790
777
778
779
780
781
782
783
684
688
687
683
681
682
631
632
633
634
636
637
680
679
678
677
676
635
645
644
643
642
641
640
639
638
630
629
628
627
626
625
624
623
622
621
620
619
618
612
613
617
616
615
614
458
459
590
591
592
593
594
595
586
587
588
589
460
461
462
463
468
467
466
465
464
575
577
576
579
580
585
583
584
582
581
578
569
568
567
566
563
564
562
565
561
559
558
557
560
556
570
571
574
573
572
555
554
518
519
520
522
521
553
552
550
549
551
548
547
546
545
544
538
539
540
541
543
542
537
534
536
535
533
532
531
530
529
524
528
525
523
527
526
516
517
515
513
512
514
511
509
508
510
507
505
506
500
497
496
493
492
494
495
498
499
501
504
503
502
473
472
474
475
471
476
478
479
477
482
483
484
485
481
480
491
489
488
490
486
487
1452
1451
1453
1454
1450
1455
1449
1469
1472
1473
1476
1477
1475
1474
1471
1470
1468
1456
1457
1448
1467
1466
1465
1464
1463
1481
1479
1478
1480
1483
1482
1484
1485
1486
1488
1487
1490
1489
1491
1501
1502
1503
1504
1505
1506
1507
1515
1516
1514
1513
1517
1519
1518
1520
1521
1522
1527
1523
1526
1524
1525
1533
1534
1545
1532
1531
1528
1529
1530
1546
1547
1548
1544
1538
1543
1542
1539
1536
1535
1537
1777
1779
1781
1782
1784
1783
1785
1780
1778
1776
1775
1540
1541
1786
1787
1788
1803
1804
1805
1806
1807
1810
1811
1812
1813
1814
1815
1816
1817
-1
EOF
